%nprocshared=20
%mem=16GB
#P opt freq b3lyp/6-31G(d,p) nosymm  empiricaldispersion=GD3BJ

TITLE

0  1
H          -0.57115809130767    0.78327014521924    0.00000062667309
H           0.20492657140610    0.83631177238425   -0.00000217495467

