%nprocshared=20
%mem=16GB
#P opt freq b3lyp/6-31G(d,p) nosymm  empiricaldispersion=GD3BJ

TITLE

0  1
N          -0.78637914309199    0.32043479811013   -0.71962139954060
N           0.01780956878331    0.22576800901205    0.02227312906247

