%nprocshared=20
%mem=16GB
#P opt  wb97xd/def2tzvp nosymm  

TITLE

0  1
H          -2.12433417997941   -0.22433417997941    2.12433417997941
H          -1.67566582002059    0.22433417997941    1.67566582002059

